NAME          GRACO13
ROWS
 G  N
 G  AMMN
 G  NITN
 G  SLOW
 G  UREAN
 G  WINN
 G  COAT
 G  P
 G  K
 G  CA
 G  WSCA
 G  MG
 G  WSMG
 G  S
 G  WSS
 G  B
 G  CU
 G  WSCU
 G  FE
 G  WSFE
 G  FECH
 G  MN
 G  WSMN
 G  MO
 G  ZN
 G  WSZN
 L   CL 
 G  DEN
 E  WT
 N  COST
 N  PRICE
COLUMNS
*234567890123456789012345678901234567890123456789012345678901
    VEUR1009  N             0.460000   UREAN         0.460000   
    VEUR1009  DEN           0.025933   WT            1.000000   
    VEUR1009  COST          0.200740   PRICE         0.290355   
    VEBU1046  K             0.605000   CL            0.470000   
    VEBU1046  DEN           0.025933   WT            1.000000   
    VEBU1046  COST          0.205000   PRICE         0.296517   
    VEBU1045  K             0.220000   MG            0.110000   
    VEBU1045  WSMG          0.110000   S             0.220000   
    VEBU1045  WSS           0.220000   DEN           0.025933   
    VEBU1045  WT            1.000000   COST          0.261300   
    VEBU1045  PRICE         0.377951   
    VEBU1001  N             0.180000   AMMN          0.180000   
    VEBU1001  P             0.460000   DEN           0.021277   
    VEBU1001  WT            1.000000   COST          0.242500   
    VEBU1001  PRICE         0.350758   
    VEBU1025  N             0.210000   AMMN          0.210000   
    VEBU1025  S             0.240000   DEN           0.025933   
    VEBU1025  WT            1.000000   COST          0.143100   
    VEBU1025  PRICE         0.206983   
    VEBU1040  K             0.510000   S             0.170000   
    VEBU1040  CL            0.015000   DEN           0.025933   
    VEBU1040  WT            1.000000   COST          0.381000   
    VEBU1040  PRICE         0.551088   
    VEBU1035  N             0.050000   SLOW          0.005000   
    VEBU1035  UREAN         0.005000   WINN          0.045000   
    VEBU1035  P             0.040000   FE            0.010000   
    VEBU1035  DEN           0.025933   WT            1.000000   
    VEBU1035  COST          0.013500   PRICE         0.019500   
    VEBU1021  CA            0.200000   MG            0.100000   
    VEBU1021  DEN           0.013348   WT            1.000000   
    VEBU1021  COST          0.049500   PRICE         0.071598   
    VEBU1015  P             0.460000   MG            0.100000   
    VEBU1015  DEN           0.013348   WT            1.000000   
    VEBU1015  COST          0.275000   PRICE         0.397767   
    VEBU1063  AMMN          0.100000   P             0.500000   
    VEBU1063  DEN           0.016026   WT            1.000000   
    VEBU1063  COST          0.810000   PRICE         1.157180   
    XRT4400   N             0.440000   UREAN         0.440000   
    XRT4400   DEN           0.016690   WT            1.000000   
    XRT4400   COST          0.367500   PRICE         0.531561   
    VEBU1103  N             0.430000   UREAN         0.430000   
    VEBU1103  COAT          0.430000   S             0.040000   
    VEBU1103  DEN           0.018182   WT            1.000000   
    VEBU1103  COST          0.422000   PRICE         0.610391   
    VEAG1050  N             0.340000   AMMN          0.170000   
    VEAG1050  NITN          0.170000   DEN           0.016026   
    VEAG1050  WT            1.000000   COST          0.192500   
    VEAG1050  PRICE         0.278437   
    VEOR2203  N             0.030000   AMMN          0.005000   
    VEOR2203  UREAN         0.004200   WINN          0.025000   
    VEOR2203  P             0.030000   K             0.030000   
    VEOR2203  DEN           0.018182   WT            1.000000   
    VEOR2203  COST          0.156817   PRICE         0.226825   
    VEBU1051  N             0.390000   SLOW          0.115000   
    VEBU1051  UREAN         0.115000   WINN          0.275000   
    VEBU1051  DEN           0.025933   WT            1.000000   
    VEBU1051  COST          0.485280   PRICE         0.701921   
    VEBU1090  N             0.390000   UREAN         0.115000   
    VEBU1090  WINN          0.275000   DEN           0.016026   
    VEBU1090  WT            1.000000   COST          0.445980   
    VEBU1090  PRICE         0.645076   
    VECA1021  N             0.120000   NITN          0.120000   
    VECA1021  CA            0.190000   WSCA          0.190000   
    VECA1021  DEN           0.018182   WT            1.000000   
    VECA1021  COST          0.272240   PRICE         0.393775   
    VEBU1101  N             0.400000   SLOW          0.215000   
    VEBU1101  UREAN         0.260000   WINN          0.140000   
    VEBU1101  DEN           0.025933   WT            1.000000   
    VEBU1101  COST          0.463740   PRICE         0.670765   
    VEBU1095  N             0.400000   SLOW          0.250000   
    VEBU1095  UREAN         0.260000   WINN          0.140000   
    VEBU1095  DEN           0.025000   WT            1.000000   
    VEBU1095  COST          0.498200   PRICE         0.720609   
    VEMI1401  N             0.060000   UREAN         0.005000   
    VEMI1401  WINN          0.055000   P             0.020000   
    VEMI1401  FE            0.040000   DEN           0.018182   
    VEMI1401  WT            1.000000   COST          0.208300   
    VEMI1401  PRICE         0.301290   
    VEPN1001  N             0.130000   NITN          0.130000   
    VEPN1001  K             0.450000   DEN           0.025933   
    VEPN1001  WT            1.000000   COST          0.521400   
    VEPN1001  PRICE         0.754166   
    VEPN1009  N             0.120000   NITN          0.120000   
    VEPN1009  K             0.430000   DEN           0.018182   
    VEPN1009  WT            1.000000   COST          0.719560   
    VEPN1009  PRICE         1.040790   
    VEGY1001  CA            0.200000   S             0.160000   
    VEGY1001  DEN           0.025933   WT            1.000000   
    VEGY1001  COST          0.130400   PRICE         0.188614   
    FLBU1004  K             0.440000   S             0.150000   
    FLBU1004  DEN           0.025933   WT            1.000000   
    FLBU1004  COST          0.700000   PRICE         1.012500   
    VFMA1009  P             0.400000   DEN           0.025933   
    VFMA1009  WT            1.000000   COST          0.600000   
    VFMA1009  PRICE         0.867855   
    FLBU1003  N             0.430000   UREAN         0.430000   
    FLBU1003  COAT          0.430000   DEN           0.025933   
    FLBU1003  WT            1.000000   COST          0.537500   
    FLBU1003  PRICE         0.777453   
    VEUR1002  N             0.410000   SLOW          0.410000   
    VEUR1002  UREAN         0.410000   DEN           0.018182   
    VEUR1002  WT            1.000000   COST          0.575500   
    VEUR1002  PRICE         0.832417   
    PL121020  N             0.140000   AMMN          0.077000   
    PL121020  NITN          0.063000   COAT          0.140000   
    PL121020  P             0.080000   K             0.150000   
    PL121020  MG            0.020000   WSMG          0.020000   
    PL121020  S             0.040000   B             0.000300   
    PL121020  CU            0.000200   WSCU          0.000200   
    PL121020  FE            0.004000   WSFE          0.002000   
    PL121020  FECH          0.002000   MN            0.001000   
    PL121020  WSMN          0.001000   MO            0.000200   
    PL121020  ZN            0.000500   WSZN          0.000500   
    PL121020  DEN           0.016025   WT            1.000000   
    PL121020  COST          0.933160   PRICE         1.349750   
    PL081015  N             0.140000   AMMN          0.063000   
    PL081015  NITN          0.077000   SLOW          0.140000   
    PL081015  COAT          0.140000   P             0.080000   
    PL081015  K             0.150000   MG            0.020000   
    PL081015  WSMG          0.020000   S             0.040000   
    PL081015  B             0.000500   CU            0.000500   
    PL081015  WSCU          0.000500   FE            0.004000   
    PL081015  WSFE          0.002000   FECH          0.002000   
    PL081015  MN            0.001000   WSMN          0.001000   
    PL081015  MO            0.000200   ZN            0.000500   
    PL081015  WSZN          0.000500   DEN           0.016026   
    PL081015  WT            1.000000   COST          0.943620   
    PL081015  PRICE         1.364880   
    PL061010  N             0.140000   AMMN          0.077000   
    PL061010  NITN          0.063000   COAT          0.140000   
    PL061010  P             0.090000   K             0.150000   
    PL061010  MG            0.012000   WSMG          0.012000   
    PL061010  S             0.062000   WSS           0.062000   
    PL061010  B             0.000200   CU            0.000200   
    PL061010  WSCU          0.000200   FE            0.004000   
    PL061010  WSFE          0.002000   FECH          0.002000   
    PL061010  MN            0.001000   WSMN          0.001000   
    PL061010  MO            0.000200   ZN            0.000200   
    PL061010  WSZN          0.000200   DEN           0.016667   
    PL061010  WT            1.000000   COST          0.862790   
    PL061010  PRICE         1.247960   
    PL041001  N             0.140000   AMMN          0.077000   
    PL041001  NITN          0.063000   COAT          0.140000   
    PL041001  P             0.090000   K             0.150000   
    PL041001  MG            0.012000   WSMG          0.012000   
    PL041001  S             0.062000   WSS           0.062000   
    PL041001  B             0.000200   CU            0.000200   
    PL041001  WSCU          0.000200   FE            0.004000   
    PL041001  WSFE          0.002000   FECH          0.002000   
    PL041001  MN            0.001000   WSMN          0.001000   
    PL041001  MO            0.000200   ZN            0.000200   
    PL041001  WSZN          0.000200   DEN           0.016667   
    PL041001  WT            1.000000   COST          0.872620   
    PL041001  PRICE         1.262180   
    PL082015  N             0.140000   AMMN          0.077000   
    PL082015  NITN          0.063000   COAT          0.140000   
    PL082015  P             0.140000   K             0.140000   
    PL082015  DEN           0.016026   WT            1.000000   
    PL082015  COST          0.493500   PRICE         0.713810   
    SCCR1045  N             0.180000   AMMN          0.097000   
    SCCR1045  NITN          0.083000   COAT          0.180000   
    SCCR1045  P             0.060000   K             0.120000   
    SCCR1045  DEN           0.013348   WT            1.000000   
    SCCR1045  COST          1.116950   PRICE         1.615580   
    SCCR1053  N             0.190000   AMMN          0.101000   
    SCCR1053  NITN          0.089000   SLOW          0.190000   
    SCCR1053  COAT          0.190000   P             0.060000   
    SCCR1053  K             0.120000   S             0.050000   
    SCCR1053  DEN           0.013348   WT            1.000000   
    SCCR1053  COST          0.895160   PRICE         1.294780   
    SCCR1022  N             0.150000   AMMN          0.069800   
    SCCR1022  NITN          0.080200   COAT          0.140000   
    SCCR1022  P             0.090000   K             0.120000   
    SCCR1022  MG            0.010000   WSMG          0.010000   
    SCCR1022  S             0.023000   B             0.000200   
    SCCR1022  CU            0.000500   WSCU          0.000500   
    SCCR1022  FE            0.004500   WSFE          0.004500   
    SCCR1022  FECH          0.002500   MN            0.000600   
    SCCR1022  WSMN          0.000600   MO            0.000200   
    SCCR1022  ZN            0.000500   WSZN          0.000500   
    SCCR1022  DEN           0.013348   WT            1.000000   
    SCCR1022  COST          1.063880   PRICE         1.538820   
    AGSP      K             0.390000   S             0.300000   
    AGSP      WSS           0.160000   FE            0.011000   
    AGSP      MN            0.005000   DEN           0.016026   
    AGSP      WT            1.000000   COST          0.515000   
    AGSP      PRICE         0.735735   
    MICRO LG  CA            0.060000   MG            0.030000   
    MICRO LG  S             0.120000   WSS           0.120000   
    MICRO LG  B             0.001000   CU            0.010000   
    MICRO LG  WSCU          0.010000   FE            0.170000   
    MICRO LG  WSFE          0.160000   MN            0.025000   
    MICRO LG  WSMN          0.025000   MO            0.000500   
    MICRO LG  ZN            0.010000   WSZN          0.010000   
    MICRO LG  DEN           0.016667   WT            1.000000   
    MICRO LG  COST          1.250000   PRICE         1.808000   
    VEFR7124  S             0.050000   B             0.018300   
    VEFR7124  CU            0.024000   WSCU          0.005000   
    VEFR7124  FE            0.144000   WSFE          0.010000   
    VEFR7124  MN            0.060000   WSMN          0.010000   
    VEFR7124  ZN            0.056000   WSZN          0.010000   
    VEFR7124  DEN           0.025911   WT            1.000000   
    VEFR7124  COST          0.393000   PRICE         0.568400   
    GBGM7001  MG            0.040000   S             0.100000   
    GBGM7001  CU            0.020000   WSCU          0.020000   
    GBGM7001  FE            0.120000   WSFE          0.120000   
    GBGM7001  FECH          0.001000   MN            0.023000   
    GBGM7001  WSMN          0.023000   ZN            0.011000   
    GBGM7001  WSZN          0.011000   DEN           0.016667   
    GBGM7001  WT            1.000000   COST          0.465000   
    GBGM7001  PRICE         0.672600   
    SCMI7010  MG            0.120000   WSMG          0.024000   
    SCMI7010  S             0.090000   CU            0.005000   
    SCMI7010  WSCU          0.001000   FE            0.080000   
    SCMI7010  WSFE          0.060000   MN            0.030000   
    SCMI7010  WSMN          0.012000   ZN            0.010000   
    SCMI7010  WSZN          0.010000   DEN           0.013366   
    SCMI7010  WT            1.000000   COST          0.760000   
    SCMI7010  PRICE         1.099300   
    VEFR7123  MG            0.120000   WSMG          0.024000   
    VEFR7123  B             0.020000   CU            0.050000   
    VEFR7123  WSCU          0.005000   FE            0.100000   
    VEFR7123  WSFE          0.010000   MN            0.050000   
    VEFR7123  WSMN          0.015000   MO            0.000500   
    VEFR7123  ZN            0.050000   WSZN          0.010000   
    VEFR7123  DEN           0.013834   WT            1.000000   
    VEFR7123  COST          0.475000   PRICE         0.687100   
    VEBO7102  B             0.150000   DEN           0.013366   
    VEBO7102  WT            1.000000   COST          0.522500   
    VEBO7102  PRICE         0.755757   
    VEZI7173  S             0.050000   ZN            0.290000   
    VEZI7173  WSZN          0.290000   DEN           0.016667   
    VEZI7173  WT            1.000000   COST          0.532500   
    VEZI7173  PRICE         0.770221   
    VEZI7177  ZN            0.355000   WSZN          0.355000   
    VEZI7177  DEN           0.013366   WT            1.000000   
    VEZI7177  COST          0.563000   PRICE         0.814337   
    VEMN7152  MN            0.400000   DEN           0.013366   
    VEMN7152  WT            1.000000   COST          0.443330   
    VEMN7152  PRICE         0.641243   
    VEMN7157  MN            0.360000   DEN           0.013367   
    VEMN7157  WT            1.000000   COST          0.323000   
    VEMN7157  PRICE         0.467195   
    VEMN7153  MN            0.320000   WSMN          0.320000   
    VEMN7153  DEN           0.016690   WT            1.000000   
    VEMN7153  COST          0.572500   PRICE         0.828078   
    VECO7112  S             0.128000   CU            0.250000   
    VECO7112  WSCU          0.250000   DEN           0.013366   
    VECO7112  WT            1.000000   COST          1.613000   
    VECO7112  PRICE         2.333080   
    VECO7110  S             0.270000   CU            0.252000   
    VECO7110  WSCU          0.252000   DEN           0.013366   
    VECO7110  WT            1.000000   COST          1.177530   
    VECO7110  PRICE         1.703210   
    VEIR7130  FE            0.500000   DEN           0.013834   
    VEIR7130  WT            1.000000   COST          0.302500   
    VEIR7130  PRICE         0.437543   
    VEIR7132  S             0.180000   FE            0.300000   
    VEIR7132  WSFE          0.300000   DEN           0.013834   
    VEIR7132  WT            1.000000   COST          0.209920   
    VEIR7132  PRICE         0.303633   
    VEIR7135  S             0.040000   FE            0.500000   
    VEIR7135  DEN           0.013366   WT            1.000000   
    VEIR7135  COST          0.193000   PRICE         0.279200   
    VEIR7139  FE            0.050000   FECH          0.050000   
    VEIR7139  DEN           0.013366   WT            1.000000   
    VEIR7139  COST          0.993000   PRICE         1.436300   
    VEMG7148  MG            0.360000   DEN           0.013366   
    VEMG7148  WT            1.000000   COST          0.380000   
    VEMG7148  PRICE         0.549600   
    VEMG7145  MG            0.450000   DEN           0.016667   
    VEMG7145  WT            1.000000   COST          0.625000   
    VEMG7145  PRICE         0.904000   
    VEMG7147  MG            0.098000   WSMG          0.098000   
    VEMG7147  S             0.129000   DEN           0.013366   
    VEMG7147  WT            1.000000   COST          0.270000   
    VEMG7147  PRICE         0.390500   
    VEBU1071  MG            0.150000   WSMG          0.150000   
    VEBU1071  S             0.200000   DEN           0.013348   
    VEBU1071  WT            1.000000   COST          0.178000   
    VEBU1071  PRICE         0.257500   
    GBOR1014  MG            0.140000   WSMG          0.140000   
    GBOR1014  S             0.190000   DEN           0.016667   
    GBOR1014  WT            1.000000   COST          0.541400   
    GBOR1014  PRICE         0.783100   
    VESU7166  S             0.900000   WSS           0.900000   
    VESU7166  DEN           0.013348   WT            1.000000   
    VESU7166  COST          0.257000   PRICE         0.371700   
    VEMO7160  MO            0.390000   DEN           0.016689   
    VEMO7160  WT            1.000000   COST         22.448000   
    VEMO7160  PRICE        32.468800   
    VELI1007  CA            0.210000   MG            0.100000   
    VELI1007  DEN           0.013366   WT            1.000000   
    VELI1007  COST          0.076400   PRICE         0.110507   
    PRODUCT   WT           -1.000000   COST          0.000000   
    PRODUCT   PRICE         0.000000   
*234567890123456789012345678901234567890123456789012345678901
RHS
    RHS1      N           100.000000   
    RHS1      P           100.000000   K           100.000000   
    RHS1      CL           10.000000   
    RHS1      WT            0.000000   
BOUNDS
 UP BND1      VEBU1015      0.000000   
RANGES
ENDATA
